GeneratedInstances/LBS20_20.param
$ LBS instance with n = 20, seed = 20
letting cards be [49,11,3,41,9,35,29,37,4,1,30,18,17,25,38,21,40,20,27,19]
